&CONTROL
  calculation = 'scf',
  prefix = 'silicon',
  outdir = './tmp/',
  pseudo_dir = './'
/

&SYSTEM
  ibrav = 2,
  celldm(1) = 10.2,
  nat = 2,
  ntyp = 1,
  ecutwfc = 50.0,
/

&ELECTRONS
  conv_thr = 1.0d-8,
/

ATOMIC_SPECIES
Si 28.0855 Si.pbe-n-kjpaw_psl.1.0.0.UPF

ATOMIC_POSITIONS crystal
Si 0.00 0.00 0.00
Si 0.25 0.25 0.25

K_POINTS automatic
4 4 4 0 0 0
